peakDumbCharging = 22200; 
Machine = anon_enum(16); 
machineSpeed = [3700,3700,3700,3700,3700,3700,3700,3700,3700,3700,3700,3700,3700,3700,3700,3700]; 
machineLoad = [3700,3700,3700,3700,3700,3700,3700,3700,3700,3700,3700,3700,3700,3700,3700,3700]; 
Car = anon_enum(32); 
demandCar = [6400,14800,2080,5320,5880,4240,6200,7640,6080,5240,7040,4200,4400,14400,25080,7520,9640,2000,16040,9120,13000,8480,10560,10480,4680,3240,2680,4320,17040,6680,10160,17280]; 
arrivalCar = [73,72,70,67,67,63,60,60,59,59,57,56,55,55,54,53,52,52,50,50,49,47,47,46,45,40,39,39,38,36,36,36]; 
departureCar = [76,77,71,70,70,65,65,65,63,62,63,60,59,62,68,59,56,54,59,55,54,53,51,52,48,43,42,44,45,40,40,42]; 
